NAME: random-54-7249
TYPE: TSP
COMMENT: size=54 seed=7249
DIMENSION: 110
EDGE_WEIGHT_TYPE: EUC_2D
NODE_COORD_SECTION
+0 943 410
-0 943 410
+1 856 939
-1 829 735
+2 999 116
-2 900 130
+3 627 708
-3 374 414
+4 768 936
-4 147 240
+5 625 315
-5 498 725
+6 389 424
-6 749 442
+7 479 361
-7 247 999
+8 894 915
-8 945 404
+9 276 600
-9 123 173
+10 653 394
-10 871 397
+11 631 183
-11 806 448
+12 834 432
-12 517 536
+13 511 232
-13 544 81
+14 554 775
-14 240 814
+15 399 755
-15 627 112
+16 105 137
-16 210 513
+17 882 819
-17 239 21
+18 939 509
-18 905 884
+19 500 603
-19 385 380
+20 635 930
-20 216 219
+21 162 294
-21 753 670
+22 784 875
-22 382 287
+23 777 778
-23 500 530
+24 695 213
-24 118 739
+25 331 376
-25 825 248
+26 355 621
-26 121 220
+27 728 485
-27 166 191
+28 565 543
-28 852 561
+29 132 677
-29 572 173
+30 367 163
-30 319 51
+31 837 217
-31 831 837
+32 277 791
-32 995 163
+33 835 615
-33 971 359
+34 621 645
-34 447 886
+35 691 444
-35 705 962
+36 215 649
-36 244 253
+37 346 467
-37 167 400
+38 944 575
-38 888 560
+39 15 400
-39 963 187
+40 615 903
-40 603 699
+41 627 614
-41 903 393
+42 538 788
-42 624 366
+43 191 537
-43 951 654
+44 352 178
-44 108 703
+45 14 167
-45 720 20
+46 722 545
-46 382 929
+47 116 300
-47 704 483
+48 271 713
-48 712 516
+49 746 597
-49 23 82
+50 638 225
-50 397 658
+51 318 176
-51 694 554
+52 978 206
-52 237 165
+53 142 307
-53 91 550
+54 4 586
-54 217 339
PRECEDENCE_SECTION
+0 -0
+1 -1
+2 -2
+3 -3
+4 -4
+5 -5
+6 -6
+7 -7
+8 -8
+9 -9
+10 -10
+11 -11
+12 -12
+13 -13
+14 -14
+15 -15
+16 -16
+17 -17
+18 -18
+19 -19
+20 -20
+21 -21
+22 -22
+23 -23
+24 -24
+25 -25
+26 -26
+27 -27
+28 -28
+29 -29
+30 -30
+31 -31
+32 -32
+33 -33
+34 -34
+35 -35
+36 -36
+37 -37
+38 -38
+39 -39
+40 -40
+41 -41
+42 -42
+43 -43
+44 -44
+45 -45
+46 -46
+47 -47
+48 -48
+49 -49
+50 -50
+51 -51
+52 -52
+53 -53
+54 -54
EOF
